networks/zoo_38_69/zoo_38_69.sol
<?xml version = "1.0" encoding="UTF-8" standalone="yes"?>
<CPLEXSolution version="1.2">
 <header
   problemName="networks/zoo_38_69/zoo_38_69.lp"
   solutionName="incumbent"
   solutionIndex="-1"
   objectiveValue="27"
   solutionTypeValue="3"
   solutionTypeString="primal"
   solutionStatusValue="101"
   solutionStatusString="integer optimal solution"
   solutionMethodString="mip"
   primalFeasible="1"
   dualFeasible="1"
   MIPNodes="0"
   MIPIterations="398"
   writeLevel="3"/>
 <quality
   epInt="1.0000000000000001e-05"
   epRHS="9.9999999999999995e-07"
   maxIntInfeas="0"
   maxPrimalInfeas="8.8817841970012523e-16"
   maxX="4"
   maxSlack="10"/>
 <variables>
  <variable name="Y(1,1)" index="0" value="1"/>
  <variable name="Y(2,19)" index="48" value="1"/>
  <variable name="Y(3,4)" index="67" value="1"/>
  <variable name="Y(5,10)" index="137" value="1"/>
  <variable name="Y(6,3)" index="162" value="1"/>
  <variable name="Y(9,17)" index="270" value="1"/>
  <variable name="Y(10,3)" index="290" value="1"/>
  <variable name="Y(13,6)" index="389" value="1"/>
  <variable name="Y(16,13)" index="492" value="1"/>
  <variable name="Y(20,7)" index="614" value="1"/>
  <variable name="Y(24,8)" index="743" value="1"/>
  <variable name="Y(25,9)" index="776" value="1"/>
  <variable name="Y(27,11)" index="842" value="1"/>
  <variable name="Y(32,19)" index="1008" value="1"/>
  <variable name="Y(33,9)" index="1032" value="1"/>
  <variable name="Y(39,18)" index="1231" value="1"/>
  <variable name="Y(40,17)" index="1262" value="1"/>
  <variable name="Y(44,6)" index="1381" value="1"/>
  <variable name="Y(45,13)" index="1420" value="1"/>
  <variable name="Y(46,16)" index="1453" value="1"/>
  <variable name="Y(47,1)" index="1472" value="1"/>
  <variable name="Y(50,5)" index="1572" value="1"/>
  <variable name="Y(52,7)" index="1638" value="1"/>
  <variable name="Y(53,8)" index="1671" value="1"/>
  <variable name="Y(57,12)" index="1803" value="1"/>
  <variable name="Y(58,13)" index="1836" value="1"/>
  <variable name="Y(62,4)" index="1955" value="1"/>
  <variable name="X(1,4,1)" index="2208" value="1"/>
  <variable name="X(1,20,47)" index="2323" value="1"/>
  <variable name="X(2,19,2)" index="2347" value="1"/>
  <variable name="X(3,4,3)" index="2417" value="1"/>
  <variable name="X(3,11,6)" index="2489" value="1"/>
  <variable name="X(3,22,10)" index="2562" value="1"/>
  <variable name="X(4,1,47)" index="2668" value="1"/>
  <variable name="X(4,3,6)" index="2696" value="1"/>
  <variable name="X(4,10,5)" index="2764" value="1"/>
  <variable name="X(4,17,3)" index="2831" value="1"/>
  <variable name="X(4,23,62)" index="2959" value="1"/>
  <variable name="X(5,6,9)" index="2975" value="1"/>
  <variable name="X(5,24,50)" index="3085" value="1"/>
  <variable name="X(6,5,50)" index="3154" value="1"/>
  <variable name="X(6,8,13)" index="3186" value="1"/>
  <variable name="X(6,9,25)" index="3267" value="1"/>
  <variable name="X(6,13,16)" index="3327" value="1"/>
  <variable name="X(6,17,9)" index="3389" value="1"/>
  <variable name="X(6,25,44)" index="3493" value="1"/>
  <variable name="X(7,17,20)" index="3538" value="1"/>
  <variable name="X(7,26,52)" index="3639" value="1"/>
  <variable name="X(8,6,25)" index="3681" value="1"/>
  <variable name="X(8,7,24)" index="3749" value="1"/>
  <variable name="X(8,17,27)" index="3821" value="1"/>
  <variable name="X(8,27,53)" index="3916" value="1"/>
  <variable name="X(9,6,33)" index="3965" value="1"/>
  <variable name="X(9,28,25)" index="4026" value="1"/>
  <variable name="X(10,11,27)" index="4097" value="1"/>
  <variable name="X(10,17,39)" index="4178" value="1"/>
  <variable name="X(10,29,5)" index="4213" value="1"/>
  <variable name="X(11,10,39)" index="4316" value="1"/>
  <variable name="X(11,30,27)" index="4373" value="1"/>
  <variable name="X(12,17,40)" index="4455" value="1"/>
  <variable name="X(12,31,57)" index="4541" value="1"/>
  <variable name="X(13,6,44)" index="4597" value="1"/>
  <variable name="X(13,12,16)" index="4638" value="1"/>
  <variable name="X(13,17,45)" index="4736" value="1"/>
  <variable name="X(13,32,58)" index="4818" value="1"/>
  <variable name="X(16,17,46)" index="4875" value="1"/>
  <variable name="X(17,4,62)" index="4960" value="1"/>
  <variable name="X(17,6,40)" index="5007" value="1"/>
  <variable name="X(17,7,52)" index="5088" value="1"/>
  <variable name="X(17,8,53)" index="5158" value="1"/>
  <variable name="X(17,10,27)" index="5201" value="1"/>
  <variable name="X(17,12,57)" index="5300" value="1"/>
  <variable name="X(17,13,58)" index="5370" value="1"/>
  <variable name="X(17,18,39)" index="5420" value="1"/>
  <variable name="X(17,19,32)" index="5482" value="1"/>
  <variable name="X(17,36,9)" index="5528" value="1"/>
  <variable name="X(18,17,62)" index="5650" value="1"/>
  <variable name="X(18,37,39)" index="5696" value="1"/>
  <variable name="X(19,17,2)" index="5728" value="1"/>
  <variable name="X(19,38,32)" index="5827" value="1"/>
  <variable name="C(2,19)" index="5869" value="1"/>
  <variable name="C(3,4)" index="5872" value="1"/>
  <variable name="C(5,10)" index="5878" value="1"/>
  <variable name="C(6,3)" index="5880" value="1"/>
  <variable name="C(9,5)" index="5887" value="2"/>
  <variable name="C(9,6)" index="5888" value="3"/>
  <variable name="C(9,17)" index="5889" value="4"/>
  <variable name="C(16,13)" index="5910" value="1"/>
  <variable name="C(25,6)" index="5933" value="1"/>
  <variable name="C(25,9)" index="5934" value="2"/>
  <variable name="C(27,17)" index="5939" value="1"/>
  <variable name="C(27,10)" index="5940" value="2"/>
  <variable name="C(27,11)" index="5941" value="2.9999999999999991"/>
  <variable name="C(32,19)" index="5955" value="1"/>
  <variable name="C(39,10)" index="5975" value="1"/>
  <variable name="C(39,17)" index="5976" value="2"/>
  <variable name="C(39,18)" index="5977" value="3"/>
  <variable name="C(40,17)" index="5979" value="1"/>
  <variable name="C(44,6)" index="5990" value="1"/>
  <variable name="C(47,1)" index="5997" value="1"/>
  <variable name="C(50,5)" index="6005" value="1"/>
  <variable name="C(52,7)" index="6009" value="1"/>
  <variable name="C(53,8)" index="6011" value="1"/>
  <variable name="C(57,12)" index="6021" value="1"/>
  <variable name="C(58,13)" index="6023" value="1"/>
  <variable name="C(62,17)" index="6033" value="1"/>
  <variable name="C(62,4)" index="6034" value="2"/>
 </variables>
</CPLEXSolution>
